0 0 0 0
0 1 0 0
0 2 0 0
0 3 0 0
0 4 0 2
0 5 0 2
0 6 1 2
0 7 0 2
0 8 0 2
0 9 0 3
0 10 0 3
0 11 0 7
0 12 1 3
0 13 0 3
0 14 0 7
0 15 0 10
0 16 1 2
0 17 0 10
0 18 0 5
0 19 0 11
0 20 0 13
0 21 0 13
0 22 0 17
0 23 0 17
0 24 0 17
0 25 1 13
0 26 0 4
0 27 0 19
0 28 1 20
0 29 0 20
0 30 0 21
0 31 0 23
